decision_x1=[0,4];
decision_x2=[0,4];
decision_x3=[0,4];
decision_x4=[0,4];
decision_x5=[0,4];
random_y1=[0,4];
constraint_x2_x1=[
0,1,0.5|
0,2,8.9|
0,3,3.8|
0,4,3.6|
1,0,4.3|
1,2,7.1|
1,3,5.6|
1,4,0.83|
2,0,2.9|
2,1,4|
2,3,1.9|
2,4,5.1|
3,0,5.3|
3,1,7.8|
3,2,4.2|
3,4,5.2|
4,0,1.8|
4,1,3.9|
4,2,1.6|
4,3,2|
];
constraint_x4_x1=[
0,1,2.7|
0,2,5.9|
0,3,1.2|
0,4,2.3|
1,0,3.2|
1,2,5.9|
1,3,0.12|
1,4,6|
2,0,3|
2,1,5.8|
2,3,4.9|
2,4,7.5|
3,0,7.6|
3,1,1.1|
3,2,9.8|
3,4,5|
4,0,9.5|
4,1,5.2|
4,2,3.4|
4,3,7|
];
constraint_x4_x2=[
0,1,1.7|
0,2,7.3|
0,3,5.1|
0,4,9.4|
1,0,9.7|
1,2,6.8|
1,3,4.1|
1,4,1.1|
2,0,6.7|
2,1,6.3|
2,3,2.3|
2,4,7.8|
3,0,3.8|
3,1,9.8|
3,2,7.1|
3,4,5.7|
4,0,7.8|
4,1,2.2|
4,2,0.98|
4,3,7.6|
];
constraint_x5_x2=[
0,1,7.5|
0,2,6.3|
0,3,4|
0,4,2.1|
1,0,3.7|
1,2,4.8|
1,3,0.56|
1,4,9.7|
2,0,3.2|
2,1,2|
2,3,4.9|
2,4,5.7|
3,0,1.2|
3,1,4.2|
3,2,1.6|
3,4,8.9|
4,0,5.8|
4,1,8.1|
4,2,4.4|
4,3,9.8|
];
constraint_x5_x3=[
0,1,4.7|
0,2,3.1|
0,3,0.9|
0,4,4|
1,0,6.5|
1,2,4.2|
1,3,9.2|
1,4,0.28|
2,0,6.2|
2,1,1.6|
2,3,1|
2,4,1.6|
3,0,6|
3,1,9.3|
3,2,0.42|
3,4,2.2|
4,0,8.6|
4,1,1.1|
4,2,4.7|
4,3,5.2|
];
constraint_x1_y1=[
0,0,9.2|
0,1,7.2|
0,2,8.1|
0,3,7.3|
0,4,8.2|
1,0,2|
1,1,8.5|
1,2,7.5|
1,3,8.5|
1,4,8.4|
2,0,3.1|
2,1,0.37|
2,2,1.8|
2,3,0.17|
2,4,8.3|
3,0,7.2|
3,1,0.28|
3,2,9.7|
3,3,2|
3,4,3.2|
4,0,0.43|
4,1,9.2|
4,2,9.9|
4,3,1.1|
4,4,9.8|
];
initial_distribution_y1=[0.12,0.098,0.26,0.24,0.28];
transition_y1=[
0.28,0.089,0.28,0.3,0.045|
0.32,0.1,0.14,0.31,0.14|
0.087,0.19,0.23,0.17,0.32|
0.17,0.36,0.18,0.24,0.063|
0.24,0.11,0.29,0.26,0.099|
];
